kpoints_mp_grid 1 1 1

%BLOCK LATTICE_CART
30.000000  0.000000  0.000000
 0.000000 30.000000  0.000000
 0.000000  0.000000 30.000000
%ENDBLOCK LATTICE_CART

%BLOCK POSITIONS_ABS
C  9.852300 12.472800 12.104700
C  9.142200 13.172700 13.284900
C  9.782100 14.502900 13.694700
C 11.342100 14.482800 13.714800
O 11.842200 13.832700 12.524700
C 11.382300 12.492900 12.234900
O 11.892300 15.792900 13.944900
O  9.522300 11.052900 12.094800
C 12.162300 11.932800 11.064900
C 13.322100 15.972900 13.624800
C 13.652100 17.502900 13.784700
C 15.022200 17.832900 14.284800
C 15.452100 16.922700 15.434700
O 14.652300 15.742800 15.544800
C 14.252100 15.042900 14.404800
C 15.332100 14.382900 13.614900
C 17.402100 15.732900 16.244700
C 17.152200 16.092900 17.734800
C 18.032100 17.232900 18.204900
C 19.532100 17.242800 17.614800
O 19.412100 16.942800 16.204800
C 18.852300 15.602700 15.954900
O 17.472300 18.482700 17.834700
C 19.202100 15.152700 14.464800
O 16.872300 16.582800 15.284700
O 19.042200 13.682700 14.304900
C 19.572300 13.162800 13.194900
O 19.972200 13.872900 12.284700
C 19.612200 11.602800 13.214700
C 18.792300 10.882800 12.054900
C 17.412300 10.522800 12.514800
O 17.202300  9.722700 13.434900
O 16.482300 11.422800 12.324900
C 16.332300 18.972900 18.644700
O 17.342100 14.832900 18.504900
C 16.792200 14.762700 19.844700
O  9.402300 14.872800 15.014700
C  9.192300 16.252800 15.164700
O 16.012200 15.362700 12.724800
C 16.772100 15.102900 11.624700
C 17.342100 16.332900 11.014800
O 17.162100 13.972800 11.344800
O 13.552200 12.192900 11.174700
C 14.202300 12.442800  9.854700
C 13.812300 13.802700  9.264900
C 14.892300 14.442900  8.374800
O 13.572300 14.622900 10.374900
O 14.882100 19.212900 14.744700
C 16.192200 19.892700 14.694900
O 13.642200 18.142800 12.484800
C 12.392100 18.352800 11.924700
O  7.742100 13.292700 12.994800
C  6.832200 13.582800 14.024700
H  9.452100 13.042800 11.254800
H  9.222300 12.472800 14.124900
H  9.432300 15.302700 13.024800
H 11.652300 13.892700 14.584800
H 11.602200 11.802900 13.064700
H  8.602200 11.032800 12.404700
H 11.672100 12.262800 10.144800
H 12.092100 10.842900 11.074800
H 13.382100 15.632700 12.584700
H 12.892200 17.862900 14.484900
H 15.792300 17.752800 13.504800
H 15.322200 17.412900 16.404900
H 13.572300 14.262900 14.774700
H 14.812200 13.592700 13.054800
H 16.052100 13.872900 14.274900
H 16.892100 14.772900 16.074900
H 16.122300 16.442700 17.844900
H 18.122100 17.122800 19.284900
H 20.212200 16.522800 18.084900
H 20.012100 18.212700 17.734800
H 19.282200 14.792700 16.554900
H 20.242200 15.412800 14.234700
H 18.672300 15.842700 13.804800
H 19.162200 11.272800 14.154900
H 20.682300 11.362800 13.254900
H 19.322100  9.932700 11.904900
H 18.872100 11.512800 11.164800
H 16.832100 12.282900 12.034800
H 15.392100 18.532800 18.284700
H 16.292100 20.052900 18.434700
H 16.482300 18.832800 19.724700
H 17.082300 13.772700 20.214900
H 15.712200 14.862900 19.684800
H 17.292300 15.492900 20.494800
H 10.042200 16.892700 14.884800
H  8.922300 16.512900 16.194900
H  8.392200 16.692900 14.554800
H 17.472300 17.122800 11.764800
H 16.542300 16.592700 10.314900
H 18.232200 16.212900 10.384800
H 13.832100 11.642700  9.204900
H 15.292200 12.432900  9.934800
H 12.882300 13.712700  8.694900
H 15.352200 13.742700  7.664700
H 15.682200 14.822700  9.024900
H 14.472300 15.262800  7.774800
H 13.272300 14.062800 11.114700
H 16.962300 19.142700 14.924700
H 16.222200 20.752800 15.374700
H 16.442100 20.282700 13.704900
H 11.802300 18.842700 12.714900
H 11.912100 17.402700 11.654700
H 12.362100 18.972900 11.024700
H  6.842100 12.652800 14.604900
H  5.832300 13.702800 13.584900
H  7.132200 14.422800 14.674800
H 14.602200 10.082700 14.174700
H 15.542100 12.742800 17.414700
H 15.672300 11.052900 15.674700
C 13.502100 10.912800 15.384900
C 14.632200 12.372900 16.944900
C 14.682300 11.412900 15.934800
O 13.642200 10.052700 14.324700
H 11.382300 10.862700 15.354900
C 12.252300 11.262900 15.874800
H 11.602200 16.562700 17.444700
H 12.072300 15.232800 16.424700
C 13.402200 12.932700 17.344800
C 12.742200 15.132900 18.484800
C 11.682300 15.472800 17.424900
N 13.412100 13.912800 18.354900
O 13.202100 15.972900 19.244700
H 11.232300 12.572700 17.234700
H 14.262300 13.962900 18.904800
H 10.772100 14.922900 17.694900
C 12.222300 12.272700 16.884900
%ENDBLOCK POSITIONS_ABS

